100 1300149815
34 66 81 2 85 48 50 94 96 27 70 52 82 74 95 45 18 37 61 20 92 36 39 24 42 25 80 31 89 21 68 93 15 4 97 58 30 100 56 67 98 69 12 54 11 22 40 7 88 35 16 13 41 29 86 43 47 78 10 99 79 44 53 55 76 17 75 51 38 59 83 49 84 60 3 46 8 57 71 14 6 65 23 90 63 91 64 28 26 73 87 77 5 32 19 62 9 72 1 33 
